\ Model matlab
\ LP format - for model browsing. Use MPS format to capture full model detail.
Minimize
  20 P1 + 0 P2 + 0 P3 + 0 P4 + 0 P5 + 0 P6 + 0 P7 + 0 P8 + 0 P9 + 0 P10
   + 0 P11 + 0 P12 + 0 P13 + 0 P14 + 0 P15 + 0 P16 + 0 P17 + 0 P18 + 0 P19
   + 0 P20 + 0 P21 + 0 P22 + 0 P23 + 0 P24 + 0 P25 + 0 P26 + 0 P27 + 0 P28
   + 0 P29 + 0 P30 + 0 P31 + 0 P32 + 0 P33
Subject To
 R0: <= 6.285
 R1: <= 6.745
 R2: <= 7.765
 R3: <= 7.885
 R4: <= 7.945
 R5: <= 8.925
 R6: <= 9.125
 R7: <= 9.325
 R8: <= 9.385
 R9: <= 9.445
 R10: <= 9.49
 R11: <= 9.55
 R12: <= 9.61
 R13: <= 9.73
 R14: <= 9.79
 R15: <= 9.85
 R16: <= 9.91
 R17: <= 9.64
 R18: <= 9.73
 R19: <= 9.82
 R20: <= 9.91
 R21: <= 9.07
 R22: <= 9.16
 R23: <= 9.58
 R24: <= 9.08
 R25: <= 9.14
 R26: <= 9.2
 R27: <= 9.26
 R28: <= 9.38
 R29: <= 9.58
 R30: <= 9.73
 R31: <= 9.94
 R32: <= 10
 R33: <= 10
 R34: <= 10
 R35: <= 10
 R36: <= 10
 R37: <= 13.715
 R38: <= 13.255
 R39: <= 12.235
 R40: <= 12.115
 R41: <= 12.055
 R42: <= 11.075
 R43: <= 10.875
 R44: <= 10.675
 R45: <= 10.615
 R46: <= 10.555
 R47: <= 10.51
 R48: <= 10.45
 R49: <= 10.39
 R50: <= 10.27
 R51: <= 10.21
 R52: <= 10.15
 R53: <= 10.09
 R54: <= 10.36
 R55: <= 10.27
 R56: <= 10.18
 R57: <= 10.09
 R58: <= 10.93
 R59: <= 10.84
 R60: <= 10.42
 R61: <= 10.92
 R62: <= 10.86
 R63: <= 10.8
 R64: <= 10.74
 R65: <= 10.62
 R66: <= 10.42
 R67: <= 10.27
 R68: <= 10.06
 R69: <= 10
 R70: <= 10
 R71: <= 10
 R72: <= 10
 R73: <= 10
 R74: P1 = 3.715
Bounds
 P1 <= 10
 P2 = 0
 P3 = 0
 P4 = 0
 P5 = 0
 P6 = 0
 P7 = 0
 P8 = 0
 P9 = 0
 P10 = 0
 P11 = 0
 P12 = 0
 P13 = 0
 P14 = 0
 P15 = 0
 P16 = 0
 P17 = 0
 P18 = 0
 P19 = 0
 P20 = 0
 P21 = 0
 P22 = 0
 P23 = 0
 P24 = 0
 P25 = 0
 P26 = 0
 P27 = 0
 P28 = 0
 P29 = 0
 P30 = 0
 P31 = 0
 P32 = 0
 P33 = 0
End
